Gurobi Optimizer version 9.1.2 build v9.1.2rc0 (linux64)
Thread count: 36 physical cores, 72 logical processors, using up to 32 threads
Optimize a model with 12 rows, 57 columns and 590 nonzeros
Model fingerprint: 0xf32eec78
Model has 47 quadratic constraints
Coefficient statistics:
  Matrix range     [2e-05, 3e+00]
  QMatrix range    [1e+00, 1e+00]
  QLMatrix range   [1e+00, 1e+00]
  Objective range  [8e-03, 7e-01]
  Bounds range     [1e+00, 1e+00]
  RHS range        [1e+00, 1e+00]
Presolve removed 9 rows and 0 columns

Continuous model is non-convex -- solving as a MIP.

Presolve removed 9 rows and 0 columns
Presolve time: 0.00s
Presolved: 189 rows, 57 columns, 443 nonzeros
Presolved model has 47 bilinear constraint(s)
Variable types: 57 continuous, 0 integer (0 binary)

Root relaxation: objective -1.743721e+00, 44 iterations, 0.00 seconds

    Nodes    |    Current Node    |     Objective Bounds      |     Work
 Expl Unexpl |  Obj  Depth IntInf | Incumbent    BestBd   Gap | It/Node Time

     0     0   -1.74372    0   38          -   -1.74372      -     -    0s
H    0     0                       0.6147548   -1.74372   384%     -    0s
     0     0   -1.64739    0    1    0.61475   -1.64739   368%     -    0s
H    0     0                      -1.6450460   -1.64739  0.14%     -    0s
     0     0     cutoff    0        -1.64505   -1.64505  0.00%     -    0s

Cutting planes:
  RLT: 25
  BQP: 3

Explored 1 nodes (76 simplex iterations) in 0.01 seconds
Thread count was 32 (of 72 available processors)

Solution count 2: -1.64505 0.614755 
No other solutions better than -1.64505

Optimal solution found (tolerance 1.00e-04)
Best objective -1.645045978473e+00, best bound -1.645045978473e+00, gap 0.0000%

User-callback calls 78, time in user-callback 0.00 sec
Gurobi Optimizer version 9.1.2 build v9.1.2rc0 (linux64)
Thread count: 36 physical cores, 72 logical processors, using up to 32 threads
Optimize a model with 60 rows, 312 columns and 16100 nonzeros
Model fingerprint: 0x59bfb0da
Model has 262 quadratic constraints
Coefficient statistics:
  Matrix range     [4e-07, 7e+00]
  QMatrix range    [1e+00, 1e+00]
  QLMatrix range   [1e+00, 1e+00]
  Objective range  [4e-03, 1e+00]
  Bounds range     [1e+00, 1e+00]
  RHS range        [1e+00, 1e+00]
Presolve removed 17 rows and 0 columns

Continuous model is non-convex -- solving as a MIP.

Presolve removed 17 rows and 0 columns
Presolve time: 0.01s
Presolved: 1079 rows, 312 columns, 12825 nonzeros
Presolved model has 262 bilinear constraint(s)
Variable types: 312 continuous, 0 integer (0 binary)

Root relaxation: objective -2.096999e+01, 301 iterations, 0.02 seconds

    Nodes    |    Current Node    |     Objective Bounds      |     Work
 Expl Unexpl |  Obj  Depth IntInf | Incumbent    BestBd   Gap | It/Node Time

     0     0  -20.96999    0  182          -  -20.96999      -     -    0s
     0     0  -20.35328    0   29          -  -20.35328      -     -    0s
     0     0  -20.31969    0   29          -  -20.31969      -     -    0s
     0     0  -20.29620    0   29          -  -20.29620      -     -    0s
     0     0  -20.29045    0   29          -  -20.29045      -     -    0s
     0     0  -20.29042    0   29          -  -20.29042      -     -    0s
     0     0  -20.28889    0   29          -  -20.28889      -     -    0s
     0     2  -20.28889    0   29          -  -20.28889      -     -    0s
* 1944  1951              50     -19.4058421  -19.89699  2.53%  36.6    1s
* 2685  1943              49     -19.4225739  -19.89492  2.43%  33.2    1s
* 2789  1918              48     -19.7945655  -19.89492  0.51%  32.9    1s
* 4048  1834              45     -19.7946856  -19.86166  0.34%  27.6    2s
* 4059  1834              45     -19.7948113  -19.86166  0.34%  27.5    2s
* 4060  1834              45     -19.7948331  -19.86166  0.34%  27.5    2s
* 4321  1878              46     -19.7948559  -19.86166  0.34%  26.7    2s
* 4385  1878              45     -19.7951057  -19.86166  0.34%  26.4    2s
* 5699   657              47     -19.7953520  -19.86166  0.33%  27.5    2s
* 5813   628              50     -19.7953624  -19.86166  0.33%  27.3    3s
* 5814   593              50     -19.7953633  -19.86166  0.33%  27.3    3s
* 5815   559              49     -19.7953638  -19.86166  0.33%  27.3    3s
* 5985   532              52     -19.7954215  -19.86166  0.33%  27.0    3s
* 5989   500              50     -19.7964863  -19.86166  0.33%  27.0    3s
* 6467   665              61     -19.7972796  -19.86166  0.33%  25.9    3s
* 6608   692              62     -19.7972975  -19.86166  0.33%  25.6    3s
* 6921   824              67     -19.7988071  -19.86166  0.32%  25.0    3s
* 7040   877              57     -19.8005562  -19.86166  0.31%  24.8    3s
* 7189   922              57     -19.8007189  -19.86166  0.31%  24.6    3s
* 7193   922              57     -19.8010377  -19.86166  0.31%  24.6    3s
* 7194   922              57     -19.8010382  -19.86166  0.31%  24.6    3s
* 7345  1004              57     -19.8011508  -19.86166  0.31%  24.3    3s
* 7544  1199              57     -19.8040521  -19.86063  0.29%  23.9    3s
* 7546  1199              58     -19.8040532  -19.86063  0.29%  23.9    3s
* 7547  1199              59     -19.8040535  -19.86063  0.29%  23.9    3s
* 7876  1231              68     -19.8090819  -19.86063  0.26%  23.4    3s
* 8320  1384              52     -19.8091194  -19.86063  0.26%  22.7    3s
* 8490  1479              60     -19.8091240  -19.85548  0.23%  22.5    3s
* 8508  1479              53     -19.8091528  -19.85548  0.23%  22.4    3s
* 8742  1578              59     -19.8109896  -19.85548  0.22%  22.1    3s
* 9160  1599              72     -19.8112121  -19.83502  0.12%  21.5    3s
* 9162  1599              73     -19.8112126  -19.83502  0.12%  21.5    3s
* 9227  1740              55     -19.8132364  -19.83502  0.11%  21.4    3s
* 9614  1773              56     -19.8132396  -19.83502  0.11%  20.9    4s
* 9768  1851              61     -19.8135798  -19.83502  0.11%  20.7    4s
* 9886  1851              55     -19.8137355  -19.83502  0.11%  20.6    4s
* 9966  1870              64     -19.8141698  -19.83502  0.11%  20.4    4s
*10375  1818              62     -19.8159457  -19.83502  0.10%  19.9    4s
*10378  1818              63     -19.8159534  -19.83502  0.10%  19.9    4s
*10709  1669              63     -19.8159534  -19.83502  0.10%  19.5    4s
*10762  1669              64     -19.8159595  -19.83502  0.10%  19.4    4s
*11051  1724              54     -19.8160173  -19.83502  0.10%  19.1    4s
*11141  1724              55     -19.8168618  -19.83502  0.09%  19.0    4s
*11545  1671              64     -19.8168754  -19.82600  0.05%  18.6    4s
*11550  1671              65     -19.8169808  -19.82600  0.05%  18.6    4s
*11781  1663              52     -19.8172551  -19.82600  0.04%  18.3    4s
*12473  1555              60     -19.8173062  -19.81990  0.01%  17.6    4s
*12553  1555              60     -19.8175563  -19.81990  0.01%  17.6    4s
*13552   855              59     -19.8175657  -19.81934  0.01%  16.4    4s

Explored 13822 nodes (223587 simplex iterations) in 4.72 seconds
Thread count was 32 (of 72 available processors)

Solution count 10: -19.8176 -19.8176 -19.8173 ... -19.816

Optimal solution found (tolerance 1.00e-04)
Best objective -1.981756574379e+01, best bound -1.981933897673e+01, gap 0.0089%

User-callback calls 28455, time in user-callback 0.01 sec



objective value: -19.81756574379059
objective bound: -19.819338976729085
x_opt: [0.9559134779498002, 1.0000000000339782, 0.0, 0.28333565812902584, 0.0, 0.0, 1.0, 0.0, 0.0, 0.0, 1.0, 8.239990128382454e-9, 1.0, 1.0, 0.021002208078629035, 1.0, 0.0, 1.0, 0.0, 0.0, 0.9990617598979437, 0.7568738413554021, 0.0, 0.8538371801882667, 0.0, 0.9061466795187572, 0.0, 1.0, 0.0, 0.0, 0.9999951437066864, 0.9268355304460705, 0.0, 0.3651381002257359, 1.0, 1.0, 0.044573449641071246, 1.0, 0.0, 0.7785876144329629, 1.0, 0.0, 1.0, 0.0, 0.0, 0.07350484009743047, 0.9614540674615712, 0.0, 1.0, 0.199402549602058]
GUROBI solution time: 4.715532064437866




